100
1000
132
132
132
132
131
131
131
130
130
130
129
129
128
128
128
127
127
127
127
126
125
125
124
124
124
123
123
121
121
121
120
120
119
119
118
118
118
117
117
117
117
116
116
116
115
115
114
114
114
114
114
113
113
113
113
112
112
112
111
107
106
105
105
105
105
105
104
103
103
102
102
102
102
101
100
100
99
99
99
97
97
96
96
96
96
95
95
94
94
93
93
92
92
92
92
92
91
91
90
90
